J = 3;
K = 3;
E = [20, 18, 5];
A = [0.5, 0.3, 1.0];
G = [0, 0, 0];
F = [5, 7, 6];
V = [0.1, 0.125, 0.15];
piso = [50, 80, 40];
techo = [300, 200, 140];
Sup = [180, 100, 100];
Inf = [300, 150, 100];
P = [0, 0, 0];
D = [150, 500, 400];
R = [15, 50, 40];
